
Gurobi 11.0.1 (win64) logging started Thu May 16 19:19:59 2024

Set parameter LogFile to value "output/solver_log8.txt"
Gurobi Optimizer version 11.0.1 build v11.0.1rc0 (win64 - Windows 11.0 (22631.2))

CPU model: 11th Gen Intel(R) Core(TM) i7-1165G7 @ 2.80GHz, instruction set [SSE2|AVX|AVX2|AVX512]
Thread count: 4 physical cores, 8 logical processors, using up to 8 threads

Optimize a model with 4765 rows, 1199 columns and 87469 nonzeros
Model fingerprint: 0x48918be4
Variable types: 568 continuous, 631 integer (631 binary)
Coefficient statistics:
  Matrix range     [4e-01, 1e+05]
  Objective range  [1e+00, 1e+02]
  Bounds range     [1e+00, 1e+00]
  RHS range        [1e-02, 1e+05]

User MIP start produced solution with objective 92299.6 (0.01s)
User MIP start produced solution with objective 92299.6 (0.01s)
Loaded user MIP start with objective 92299.6

Presolve removed 600 rows and 334 columns
Presolve time: 0.11s
Presolved: 4165 rows, 865 columns, 78530 nonzeros
Variable types: 526 continuous, 339 integer (337 binary)

Root relaxation: objective 9.281169e+04, 1083 iterations, 0.05 seconds (0.11 work units)

    Nodes    |    Current Node    |     Objective Bounds      |     Work
 Expl Unexpl |  Obj  Depth IntInf | Incumbent    BestBd   Gap | It/Node Time

     0     0 92811.6949    0    3 92299.5732 92811.6949  0.55%     -    0s
H    0     0                    92613.783324 92811.6949  0.21%     -    0s
H    0     0                    92653.783324 92811.6949  0.17%     -    0s

Cutting planes:
  MIR: 5

Explored 1 nodes (1322 simplex iterations) in 0.50 seconds (0.64 work units)
Thread count was 8 (of 8 available processors)

Solution count 4: 92653.8 92653.8 92613.8 92299.6 

Optimal solution found (tolerance 1.00e-04)
Best objective 9.265378332416e+04, best bound 9.265378332416e+04, gap 0.0000%
